c Read 1024 clauses.  384 variables
c Breaking ties randomly with seed 1
c Placed 1024 terms into 179 buckets.
c Bucket 8 Reduced to term with 7 nodes
c Bucket 16 Reduced to term with 9 nodes
c Bucket 24 Reduced to term with 9 nodes
c Bucket 32 Reduced to term with 9 nodes
c Bucket 40 Reduced to term with 7 nodes
c Bucket 48 Reduced to term with 7 nodes
c Bucket 56 Reduced to term with 7 nodes
c Bucket 64 Reduced to term with 11 nodes
c Bucket 72 Reduced to term with 9 nodes
c Bucket 80 Reduced to term with 9 nodes
c Bucket 88 Reduced to term with 7 nodes
c Bucket 96 Reduced to term with 13 nodes
c Bucket 104 Reduced to term with 9 nodes
c Bucket 112 Reduced to term with 21 nodes
c Bucket 120 Reduced to term with 13 nodes
c Bucket 128 Reduced to term with 9 nodes
c Bucket 136 Reduced to term with 27 nodes
c Bucket 144 Reduced to term with 9 nodes
c Bucket 152 Reduced to term with 21 nodes
c Bucket 160 Reduced to term with 7 nodes
c Bucket 168 Reduced to term with 7 nodes
c Bucket 176 Reduced to term with 21 nodes
c Bucket 184 Reduced to term with 19 nodes
c Bucket 192 Reduced to term with 33 nodes
c Bucket 208 Reduced to term with 67 nodes
c Bucket 216 Reduced to term with 141 nodes
c Bucket 224 Reduced to term with 19 nodes
c Bucket 232 Reduced to term with 143 nodes
c Bucket 240 Reduced to term with 115 nodes
c Bucket 264 Reduced to term with 49 nodes
s UNSATISFIABLE

c Cache statistics
c ----------------
c Unique Access:  27662
c Unique Chain:   111
c Unique Hit:     5196
c Unique Miss:    21999
c => Hit rate =   0.19
c Operator Hits:  28003
c Operator Miss:  35616
c => Hit rate =   0.44
c Swap count =    0

c BDD statistics
c ----------------
c Total BDD nodes produced: 21999
c Input variables: 384
c Input clauses: 1024
c Total clauses: 135301
c Unused+non-BDD clause IDs: 4877 (3.6%)
c Maximum live clauses: 108242
c Deleted clauses: 134277
c Final live clauses: 1024
c Total variables: 22381
c Elapsed seconds: 0.114
-rw-r--r--  1 bryant  staff  5755423 Mar 11 17:36 chew-130-123456.lrat
c parsed a formula with 384 variables and 1024 clauses
c VERIFIED
c allocated 1024 597870 3840
c Added clauses = 135301.  Deleted clauses = 27059.  Max live clauses = 108242
c verification time = 0.08 secs
